NAME : P = NP
TYPE : TSP
DIMENSION : 20
EDGE_WEIGHT_TYPE : EUC_2D
NODE_COORD_SECTION
0 17 8
1 94 550
2 382 156
3 219 337
4 317 451
5 40 266
6 381 244
7 23 450
8 79 194
9 225 75
10 9 428
11 210 222
12 3 3
13 23 13
14 468 263
15 61 659
16 55 24
17 27 235
18 87 55
19 624 64